data;
set V := 1 2 3 4 5 6 7 8 9 10 11 12 13 14 15 16 17 18 19 20 21 22 23 24 25 26 27 28 29 30 31 32 33 34 35 36 37 38 39 40 41 42 43 44 45 46 47 48 49 50 51 52 53 54 55 56 57 58 59 60 61 62 63 64 65 66 67 68 69 70 71 72 73 74 75 76 77 78 79 80 81 82 83 84 85 86 87 88 89 90 91 92 93 94 95 96 97 98 99 100 101 102 103 104 105 106 107 108 109 110 111 112 113 114 115 116 117 118 119 120 121 122 123 124 125 126 127 128 129 130 131 132 133 134 135 136 137 138 139 140 141 142 143 144 145 146 147 148 149 150 151 152 153 154;
set E :=
	(1,2)
	(2,1)
	(1,4)
	(4,1)
	(1,23)
	(23,1)
	(1,25)
	(25,1)
	(2,3)
	(3,2)
	(2,22)
	(22,2)
	(2,24)
	(24,2)
	(3,6)
	(6,3)
	(3,16)
	(16,3)
	(3,23)
	(23,3)
	(3,27)
	(27,3)
	(3,37)
	(37,3)
	(4,5)
	(5,4)
	(4,16)
	(16,4)
	(4,22)
	(22,4)
	(4,26)
	(26,4)
	(4,37)
	(37,4)
	(5,8)
	(8,5)
	(5,17)
	(17,5)
	(5,25)
	(25,5)
	(5,29)
	(29,5)
	(5,38)
	(38,5)
	(6,7)
	(7,6)
	(6,17)
	(17,6)
	(6,24)
	(24,6)
	(6,28)
	(28,6)
	(6,38)
	(38,6)
	(7,10)
	(10,7)
	(7,18)
	(18,7)
	(7,27)
	(27,7)
	(7,31)
	(31,7)
	(7,39)
	(39,7)
	(8,9)
	(9,8)
	(8,18)
	(18,8)
	(8,26)
	(26,8)
	(8,30)
	(30,8)
	(8,39)
	(39,8)
	(9,12)
	(12,9)
	(9,19)
	(19,9)
	(9,29)
	(29,9)
	(9,33)
	(33,9)
	(9,40)
	(40,9)
	(10,11)
	(11,10)
	(10,19)
	(19,10)
	(10,28)
	(28,10)
	(10,32)
	(32,10)
	(10,40)
	(40,10)
	(11,14)
	(14,11)
	(11,20)
	(20,11)
	(11,31)
	(31,11)
	(11,35)
	(35,11)
	(11,41)
	(41,11)
	(12,13)
	(13,12)
	(12,20)
	(20,12)
	(12,30)
	(30,12)
	(12,34)
	(34,12)
	(12,41)
	(41,12)
	(13,15)
	(15,13)
	(13,21)
	(21,13)
	(13,33)
	(33,13)
	(13,36)
	(36,13)
	(13,42)
	(42,13)
	(14,15)
	(15,14)
	(14,21)
	(21,14)
	(14,32)
	(32,14)
	(14,36)
	(36,14)
	(14,42)
	(42,14)
	(15,16)
	(16,15)
	(15,17)
	(17,15)
	(15,18)
	(18,15)
	(15,19)
	(19,15)
	(15,20)
	(20,15)
	(15,21)
	(21,15)
	(15,34)
	(34,15)
	(15,35)
	(35,15)
	(15,37)
	(37,15)
	(15,38)
	(38,15)
	(15,39)
	(39,15)
	(15,40)
	(40,15)
	(15,41)
	(41,15)
	(15,42)
	(42,15)
	(16,17)
	(17,16)
	(16,18)
	(18,16)
	(16,19)
	(19,16)
	(16,20)
	(20,16)
	(16,21)
	(21,16)
	(16,24)
	(24,16)
	(16,25)
	(25,16)
	(16,36)
	(36,16)
	(16,38)
	(38,16)
	(16,39)
	(39,16)
	(16,40)
	(40,16)
	(16,41)
	(41,16)
	(16,42)
	(42,16)
	(17,18)
	(18,17)
	(17,19)
	(19,17)
	(17,20)
	(20,17)
	(17,21)
	(21,17)
	(17,26)
	(26,17)
	(17,27)
	(27,17)
	(17,36)
	(36,17)
	(17,37)
	(37,17)
	(17,39)
	(39,17)
	(17,40)
	(40,17)
	(17,41)
	(41,17)
	(17,42)
	(42,17)
	(18,19)
	(19,18)
	(18,20)
	(20,18)
	(18,21)
	(21,18)
	(18,28)
	(28,18)
	(18,29)
	(29,18)
	(18,36)
	(36,18)
	(18,37)
	(37,18)
	(18,38)
	(38,18)
	(18,40)
	(40,18)
	(18,41)
	(41,18)
	(18,42)
	(42,18)
	(19,20)
	(20,19)
	(19,21)
	(21,19)
	(19,30)
	(30,19)
	(19,31)
	(31,19)
	(19,36)
	(36,19)
	(19,37)
	(37,19)
	(19,38)
	(38,19)
	(19,39)
	(39,19)
	(19,41)
	(41,19)
	(19,42)
	(42,19)
	(20,21)
	(21,20)
	(20,32)
	(32,20)
	(20,33)
	(33,20)
	(20,36)
	(36,20)
	(20,37)
	(37,20)
	(20,38)
	(38,20)
	(20,39)
	(39,20)
	(20,40)
	(40,20)
	(20,42)
	(42,20)
	(21,34)
	(34,21)
	(21,35)
	(35,21)
	(21,36)
	(36,21)
	(21,37)
	(37,21)
	(21,38)
	(38,21)
	(21,39)
	(39,21)
	(21,40)
	(40,21)
	(21,41)
	(41,21)
	(22,44)
	(44,22)
	(22,46)
	(46,22)
	(22,149)
	(149,22)
	(23,43)
	(43,23)
	(23,45)
	(45,23)
	(23,149)
	(149,23)
	(24,44)
	(44,24)
	(24,48)
	(48,24)
	(24,58)
	(58,24)
	(24,149)
	(149,24)
	(25,43)
	(43,25)
	(25,47)
	(47,25)
	(25,58)
	(58,25)
	(25,149)
	(149,25)
	(26,46)
	(46,26)
	(26,50)
	(50,26)
	(26,59)
	(59,26)
	(26,149)
	(149,26)
	(27,45)
	(45,27)
	(27,49)
	(49,27)
	(27,59)
	(59,27)
	(27,149)
	(149,27)
	(28,48)
	(48,28)
	(28,52)
	(52,28)
	(28,60)
	(60,28)
	(28,149)
	(149,28)
	(29,47)
	(47,29)
	(29,51)
	(51,29)
	(29,60)
	(60,29)
	(29,149)
	(149,29)
	(30,50)
	(50,30)
	(30,54)
	(54,30)
	(30,61)
	(61,30)
	(30,149)
	(149,30)
	(31,49)
	(49,31)
	(31,53)
	(53,31)
	(31,61)
	(61,31)
	(31,149)
	(149,31)
	(32,52)
	(52,32)
	(32,56)
	(56,32)
	(32,62)
	(62,32)
	(32,149)
	(149,32)
	(33,51)
	(51,33)
	(33,55)
	(55,33)
	(33,62)
	(62,33)
	(33,149)
	(149,33)
	(34,54)
	(54,34)
	(34,57)
	(57,34)
	(34,63)
	(63,34)
	(34,149)
	(149,34)
	(35,53)
	(53,35)
	(35,57)
	(57,35)
	(35,63)
	(63,35)
	(35,149)
	(149,35)
	(36,55)
	(55,36)
	(36,56)
	(56,36)
	(36,58)
	(58,36)
	(36,59)
	(59,36)
	(36,60)
	(60,36)
	(36,61)
	(61,36)
	(36,62)
	(62,36)
	(36,63)
	(63,36)
	(36,149)
	(149,36)
	(37,45)
	(45,37)
	(37,46)
	(46,37)
	(37,57)
	(57,37)
	(37,59)
	(59,37)
	(37,60)
	(60,37)
	(37,61)
	(61,37)
	(37,62)
	(62,37)
	(37,63)
	(63,37)
	(37,149)
	(149,37)
	(38,47)
	(47,38)
	(38,48)
	(48,38)
	(38,57)
	(57,38)
	(38,58)
	(58,38)
	(38,60)
	(60,38)
	(38,61)
	(61,38)
	(38,62)
	(62,38)
	(38,63)
	(63,38)
	(38,149)
	(149,38)
	(39,49)
	(49,39)
	(39,50)
	(50,39)
	(39,57)
	(57,39)
	(39,58)
	(58,39)
	(39,59)
	(59,39)
	(39,61)
	(61,39)
	(39,62)
	(62,39)
	(39,63)
	(63,39)
	(39,149)
	(149,39)
	(40,51)
	(51,40)
	(40,52)
	(52,40)
	(40,57)
	(57,40)
	(40,58)
	(58,40)
	(40,59)
	(59,40)
	(40,60)
	(60,40)
	(40,62)
	(62,40)
	(40,63)
	(63,40)
	(40,149)
	(149,40)
	(41,53)
	(53,41)
	(41,54)
	(54,41)
	(41,57)
	(57,41)
	(41,58)
	(58,41)
	(41,59)
	(59,41)
	(41,60)
	(60,41)
	(41,61)
	(61,41)
	(41,63)
	(63,41)
	(41,149)
	(149,41)
	(42,55)
	(55,42)
	(42,56)
	(56,42)
	(42,57)
	(57,42)
	(42,58)
	(58,42)
	(42,59)
	(59,42)
	(42,60)
	(60,42)
	(42,61)
	(61,42)
	(42,62)
	(62,42)
	(42,149)
	(149,42)
	(43,65)
	(65,43)
	(43,67)
	(67,43)
	(43,150)
	(150,43)
	(44,64)
	(64,44)
	(44,66)
	(66,44)
	(44,150)
	(150,44)
	(45,65)
	(65,45)
	(45,69)
	(69,45)
	(45,79)
	(79,45)
	(45,150)
	(150,45)
	(46,64)
	(64,46)
	(46,68)
	(68,46)
	(46,79)
	(79,46)
	(46,150)
	(150,46)
	(47,67)
	(67,47)
	(47,71)
	(71,47)
	(47,80)
	(80,47)
	(47,150)
	(150,47)
	(48,66)
	(66,48)
	(48,70)
	(70,48)
	(48,80)
	(80,48)
	(48,150)
	(150,48)
	(49,69)
	(69,49)
	(49,73)
	(73,49)
	(49,81)
	(81,49)
	(49,150)
	(150,49)
	(50,68)
	(68,50)
	(50,72)
	(72,50)
	(50,81)
	(81,50)
	(50,150)
	(150,50)
	(51,71)
	(71,51)
	(51,75)
	(75,51)
	(51,82)
	(82,51)
	(51,150)
	(150,51)
	(52,70)
	(70,52)
	(52,74)
	(74,52)
	(52,82)
	(82,52)
	(52,150)
	(150,52)
	(53,73)
	(73,53)
	(53,77)
	(77,53)
	(53,83)
	(83,53)
	(53,150)
	(150,53)
	(54,72)
	(72,54)
	(54,76)
	(76,54)
	(54,83)
	(83,54)
	(54,150)
	(150,54)
	(55,75)
	(75,55)
	(55,78)
	(78,55)
	(55,84)
	(84,55)
	(55,150)
	(150,55)
	(56,74)
	(74,56)
	(56,78)
	(78,56)
	(56,84)
	(84,56)
	(56,150)
	(150,56)
	(57,76)
	(76,57)
	(57,77)
	(77,57)
	(57,79)
	(79,57)
	(57,80)
	(80,57)
	(57,81)
	(81,57)
	(57,82)
	(82,57)
	(57,83)
	(83,57)
	(57,84)
	(84,57)
	(57,150)
	(150,57)
	(58,66)
	(66,58)
	(58,67)
	(67,58)
	(58,78)
	(78,58)
	(58,80)
	(80,58)
	(58,81)
	(81,58)
	(58,82)
	(82,58)
	(58,83)
	(83,58)
	(58,84)
	(84,58)
	(58,150)
	(150,58)
	(59,68)
	(68,59)
	(59,69)
	(69,59)
	(59,78)
	(78,59)
	(59,79)
	(79,59)
	(59,81)
	(81,59)
	(59,82)
	(82,59)
	(59,83)
	(83,59)
	(59,84)
	(84,59)
	(59,150)
	(150,59)
	(60,70)
	(70,60)
	(60,71)
	(71,60)
	(60,78)
	(78,60)
	(60,79)
	(79,60)
	(60,80)
	(80,60)
	(60,82)
	(82,60)
	(60,83)
	(83,60)
	(60,84)
	(84,60)
	(60,150)
	(150,60)
	(61,72)
	(72,61)
	(61,73)
	(73,61)
	(61,78)
	(78,61)
	(61,79)
	(79,61)
	(61,80)
	(80,61)
	(61,81)
	(81,61)
	(61,83)
	(83,61)
	(61,84)
	(84,61)
	(61,150)
	(150,61)
	(62,74)
	(74,62)
	(62,75)
	(75,62)
	(62,78)
	(78,62)
	(62,79)
	(79,62)
	(62,80)
	(80,62)
	(62,81)
	(81,62)
	(62,82)
	(82,62)
	(62,84)
	(84,62)
	(62,150)
	(150,62)
	(63,76)
	(76,63)
	(63,77)
	(77,63)
	(63,78)
	(78,63)
	(63,79)
	(79,63)
	(63,80)
	(80,63)
	(63,81)
	(81,63)
	(63,82)
	(82,63)
	(63,83)
	(83,63)
	(63,150)
	(150,63)
	(64,86)
	(86,64)
	(64,88)
	(88,64)
	(64,151)
	(151,64)
	(65,85)
	(85,65)
	(65,87)
	(87,65)
	(65,151)
	(151,65)
	(66,86)
	(86,66)
	(66,90)
	(90,66)
	(66,100)
	(100,66)
	(66,151)
	(151,66)
	(67,85)
	(85,67)
	(67,89)
	(89,67)
	(67,100)
	(100,67)
	(67,151)
	(151,67)
	(68,88)
	(88,68)
	(68,92)
	(92,68)
	(68,101)
	(101,68)
	(68,151)
	(151,68)
	(69,87)
	(87,69)
	(69,91)
	(91,69)
	(69,101)
	(101,69)
	(69,151)
	(151,69)
	(70,90)
	(90,70)
	(70,94)
	(94,70)
	(70,102)
	(102,70)
	(70,151)
	(151,70)
	(71,89)
	(89,71)
	(71,93)
	(93,71)
	(71,102)
	(102,71)
	(71,151)
	(151,71)
	(72,92)
	(92,72)
	(72,96)
	(96,72)
	(72,103)
	(103,72)
	(72,151)
	(151,72)
	(73,91)
	(91,73)
	(73,95)
	(95,73)
	(73,103)
	(103,73)
	(73,151)
	(151,73)
	(74,94)
	(94,74)
	(74,98)
	(98,74)
	(74,104)
	(104,74)
	(74,151)
	(151,74)
	(75,93)
	(93,75)
	(75,97)
	(97,75)
	(75,104)
	(104,75)
	(75,151)
	(151,75)
	(76,96)
	(96,76)
	(76,99)
	(99,76)
	(76,105)
	(105,76)
	(76,151)
	(151,76)
	(77,95)
	(95,77)
	(77,99)
	(99,77)
	(77,105)
	(105,77)
	(77,151)
	(151,77)
	(78,97)
	(97,78)
	(78,98)
	(98,78)
	(78,100)
	(100,78)
	(78,101)
	(101,78)
	(78,102)
	(102,78)
	(78,103)
	(103,78)
	(78,104)
	(104,78)
	(78,105)
	(105,78)
	(78,151)
	(151,78)
	(79,87)
	(87,79)
	(79,88)
	(88,79)
	(79,99)
	(99,79)
	(79,101)
	(101,79)
	(79,102)
	(102,79)
	(79,103)
	(103,79)
	(79,104)
	(104,79)
	(79,105)
	(105,79)
	(79,151)
	(151,79)
	(80,89)
	(89,80)
	(80,90)
	(90,80)
	(80,99)
	(99,80)
	(80,100)
	(100,80)
	(80,102)
	(102,80)
	(80,103)
	(103,80)
	(80,104)
	(104,80)
	(80,105)
	(105,80)
	(80,151)
	(151,80)
	(81,91)
	(91,81)
	(81,92)
	(92,81)
	(81,99)
	(99,81)
	(81,100)
	(100,81)
	(81,101)
	(101,81)
	(81,103)
	(103,81)
	(81,104)
	(104,81)
	(81,105)
	(105,81)
	(81,151)
	(151,81)
	(82,93)
	(93,82)
	(82,94)
	(94,82)
	(82,99)
	(99,82)
	(82,100)
	(100,82)
	(82,101)
	(101,82)
	(82,102)
	(102,82)
	(82,104)
	(104,82)
	(82,105)
	(105,82)
	(82,151)
	(151,82)
	(83,95)
	(95,83)
	(83,96)
	(96,83)
	(83,99)
	(99,83)
	(83,100)
	(100,83)
	(83,101)
	(101,83)
	(83,102)
	(102,83)
	(83,103)
	(103,83)
	(83,105)
	(105,83)
	(83,151)
	(151,83)
	(84,97)
	(97,84)
	(84,98)
	(98,84)
	(84,99)
	(99,84)
	(84,100)
	(100,84)
	(84,101)
	(101,84)
	(84,102)
	(102,84)
	(84,103)
	(103,84)
	(84,104)
	(104,84)
	(84,151)
	(151,84)
	(85,107)
	(107,85)
	(85,109)
	(109,85)
	(85,152)
	(152,85)
	(86,106)
	(106,86)
	(86,108)
	(108,86)
	(86,152)
	(152,86)
	(87,107)
	(107,87)
	(87,111)
	(111,87)
	(87,121)
	(121,87)
	(87,152)
	(152,87)
	(88,106)
	(106,88)
	(88,110)
	(110,88)
	(88,121)
	(121,88)
	(88,152)
	(152,88)
	(89,109)
	(109,89)
	(89,113)
	(113,89)
	(89,122)
	(122,89)
	(89,152)
	(152,89)
	(90,108)
	(108,90)
	(90,112)
	(112,90)
	(90,122)
	(122,90)
	(90,152)
	(152,90)
	(91,111)
	(111,91)
	(91,115)
	(115,91)
	(91,123)
	(123,91)
	(91,152)
	(152,91)
	(92,110)
	(110,92)
	(92,114)
	(114,92)
	(92,123)
	(123,92)
	(92,152)
	(152,92)
	(93,113)
	(113,93)
	(93,117)
	(117,93)
	(93,124)
	(124,93)
	(93,152)
	(152,93)
	(94,112)
	(112,94)
	(94,116)
	(116,94)
	(94,124)
	(124,94)
	(94,152)
	(152,94)
	(95,115)
	(115,95)
	(95,119)
	(119,95)
	(95,125)
	(125,95)
	(95,152)
	(152,95)
	(96,114)
	(114,96)
	(96,118)
	(118,96)
	(96,125)
	(125,96)
	(96,152)
	(152,96)
	(97,117)
	(117,97)
	(97,120)
	(120,97)
	(97,126)
	(126,97)
	(97,152)
	(152,97)
	(98,116)
	(116,98)
	(98,120)
	(120,98)
	(98,126)
	(126,98)
	(98,152)
	(152,98)
	(99,118)
	(118,99)
	(99,119)
	(119,99)
	(99,121)
	(121,99)
	(99,122)
	(122,99)
	(99,123)
	(123,99)
	(99,124)
	(124,99)
	(99,125)
	(125,99)
	(99,126)
	(126,99)
	(99,152)
	(152,99)
	(100,108)
	(108,100)
	(100,109)
	(109,100)
	(100,120)
	(120,100)
	(100,122)
	(122,100)
	(100,123)
	(123,100)
	(100,124)
	(124,100)
	(100,125)
	(125,100)
	(100,126)
	(126,100)
	(100,152)
	(152,100)
	(101,110)
	(110,101)
	(101,111)
	(111,101)
	(101,120)
	(120,101)
	(101,121)
	(121,101)
	(101,123)
	(123,101)
	(101,124)
	(124,101)
	(101,125)
	(125,101)
	(101,126)
	(126,101)
	(101,152)
	(152,101)
	(102,112)
	(112,102)
	(102,113)
	(113,102)
	(102,120)
	(120,102)
	(102,121)
	(121,102)
	(102,122)
	(122,102)
	(102,124)
	(124,102)
	(102,125)
	(125,102)
	(102,126)
	(126,102)
	(102,152)
	(152,102)
	(103,114)
	(114,103)
	(103,115)
	(115,103)
	(103,120)
	(120,103)
	(103,121)
	(121,103)
	(103,122)
	(122,103)
	(103,123)
	(123,103)
	(103,125)
	(125,103)
	(103,126)
	(126,103)
	(103,152)
	(152,103)
	(104,116)
	(116,104)
	(104,117)
	(117,104)
	(104,120)
	(120,104)
	(104,121)
	(121,104)
	(104,122)
	(122,104)
	(104,123)
	(123,104)
	(104,124)
	(124,104)
	(104,126)
	(126,104)
	(104,152)
	(152,104)
	(105,118)
	(118,105)
	(105,119)
	(119,105)
	(105,120)
	(120,105)
	(105,121)
	(121,105)
	(105,122)
	(122,105)
	(105,123)
	(123,105)
	(105,124)
	(124,105)
	(105,125)
	(125,105)
	(105,152)
	(152,105)
	(106,128)
	(128,106)
	(106,130)
	(130,106)
	(106,153)
	(153,106)
	(107,127)
	(127,107)
	(107,129)
	(129,107)
	(107,153)
	(153,107)
	(108,128)
	(128,108)
	(108,132)
	(132,108)
	(108,142)
	(142,108)
	(108,153)
	(153,108)
	(109,127)
	(127,109)
	(109,131)
	(131,109)
	(109,142)
	(142,109)
	(109,153)
	(153,109)
	(110,130)
	(130,110)
	(110,134)
	(134,110)
	(110,143)
	(143,110)
	(110,153)
	(153,110)
	(111,129)
	(129,111)
	(111,133)
	(133,111)
	(111,143)
	(143,111)
	(111,153)
	(153,111)
	(112,132)
	(132,112)
	(112,136)
	(136,112)
	(112,144)
	(144,112)
	(112,153)
	(153,112)
	(113,131)
	(131,113)
	(113,135)
	(135,113)
	(113,144)
	(144,113)
	(113,153)
	(153,113)
	(114,134)
	(134,114)
	(114,138)
	(138,114)
	(114,145)
	(145,114)
	(114,153)
	(153,114)
	(115,133)
	(133,115)
	(115,137)
	(137,115)
	(115,145)
	(145,115)
	(115,153)
	(153,115)
	(116,136)
	(136,116)
	(116,140)
	(140,116)
	(116,146)
	(146,116)
	(116,153)
	(153,116)
	(117,135)
	(135,117)
	(117,139)
	(139,117)
	(117,146)
	(146,117)
	(117,153)
	(153,117)
	(118,138)
	(138,118)
	(118,141)
	(141,118)
	(118,147)
	(147,118)
	(118,153)
	(153,118)
	(119,137)
	(137,119)
	(119,141)
	(141,119)
	(119,147)
	(147,119)
	(119,153)
	(153,119)
	(120,139)
	(139,120)
	(120,140)
	(140,120)
	(120,142)
	(142,120)
	(120,143)
	(143,120)
	(120,144)
	(144,120)
	(120,145)
	(145,120)
	(120,146)
	(146,120)
	(120,147)
	(147,120)
	(120,153)
	(153,120)
	(121,129)
	(129,121)
	(121,130)
	(130,121)
	(121,141)
	(141,121)
	(121,143)
	(143,121)
	(121,144)
	(144,121)
	(121,145)
	(145,121)
	(121,146)
	(146,121)
	(121,147)
	(147,121)
	(121,153)
	(153,121)
	(122,131)
	(131,122)
	(122,132)
	(132,122)
	(122,141)
	(141,122)
	(122,142)
	(142,122)
	(122,144)
	(144,122)
	(122,145)
	(145,122)
	(122,146)
	(146,122)
	(122,147)
	(147,122)
	(122,153)
	(153,122)
	(123,133)
	(133,123)
	(123,134)
	(134,123)
	(123,141)
	(141,123)
	(123,142)
	(142,123)
	(123,143)
	(143,123)
	(123,145)
	(145,123)
	(123,146)
	(146,123)
	(123,147)
	(147,123)
	(123,153)
	(153,123)
	(124,135)
	(135,124)
	(124,136)
	(136,124)
	(124,141)
	(141,124)
	(124,142)
	(142,124)
	(124,143)
	(143,124)
	(124,144)
	(144,124)
	(124,146)
	(146,124)
	(124,147)
	(147,124)
	(124,153)
	(153,124)
	(125,137)
	(137,125)
	(125,138)
	(138,125)
	(125,141)
	(141,125)
	(125,142)
	(142,125)
	(125,143)
	(143,125)
	(125,144)
	(144,125)
	(125,145)
	(145,125)
	(125,147)
	(147,125)
	(125,153)
	(153,125)
	(126,139)
	(139,126)
	(126,140)
	(140,126)
	(126,141)
	(141,126)
	(126,142)
	(142,126)
	(126,143)
	(143,126)
	(126,144)
	(144,126)
	(126,145)
	(145,126)
	(126,146)
	(146,126)
	(126,153)
	(153,126)
	(127,148)
	(148,127)
	(127,154)
	(154,127)
	(128,148)
	(148,128)
	(128,154)
	(154,128)
	(129,148)
	(148,129)
	(129,154)
	(154,129)
	(130,148)
	(148,130)
	(130,154)
	(154,130)
	(131,148)
	(148,131)
	(131,154)
	(154,131)
	(132,148)
	(148,132)
	(132,154)
	(154,132)
	(133,148)
	(148,133)
	(133,154)
	(154,133)
	(134,148)
	(148,134)
	(134,154)
	(154,134)
	(135,148)
	(148,135)
	(135,154)
	(154,135)
	(136,148)
	(148,136)
	(136,154)
	(154,136)
	(137,148)
	(148,137)
	(137,154)
	(154,137)
	(138,148)
	(148,138)
	(138,154)
	(154,138)
	(139,148)
	(148,139)
	(139,154)
	(154,139)
	(140,148)
	(148,140)
	(140,154)
	(154,140)
	(141,148)
	(148,141)
	(141,154)
	(154,141)
	(142,148)
	(148,142)
	(142,154)
	(154,142)
	(143,148)
	(148,143)
	(143,154)
	(154,143)
	(144,148)
	(148,144)
	(144,154)
	(154,144)
	(145,148)
	(148,145)
	(145,154)
	(154,145)
	(146,148)
	(148,146)
	(146,154)
	(154,146)
	(147,148)
	(148,147)
	(147,154)
	(154,147)
	(148,149)
	(149,148)
	(148,150)
	(150,148)
	(148,151)
	(151,148)
	(148,152)
	(152,148)
	(148,153)
	(153,148)
	(148,154)
	(154,148)
	(149,150)
	(150,149)
	(149,151)
	(151,149)
	(149,152)
	(152,149)
	(149,153)
	(153,149)
	(149,154)
	(154,149)
	(150,151)
	(151,150)
	(150,152)
	(152,150)
	(150,153)
	(153,150)
	(150,154)
	(154,150)
	(151,152)
	(152,151)
	(151,153)
	(153,151)
	(151,154)
	(154,151)
	(152,153)
	(153,152)
	(152,154)
	(154,152)
	(153,154)
	(154,153);
param vertexCount := 154;
end;
